NAME : portgen-30-108
COMMENT : portgen N=30, seed=108
TYPE : TSP
DIMENSION : 30
EDGE_WEIGHT_TYPE : EUC_2D
NODE_COORD_SECTION
1 1057 37
2 63 1482
3 56 2000
4 3032 2024
5 2196 2096
6 1740 2380
7 927 3063
8 2641 1208
9 263 2800
10 387 1420
11 194 49
12 427 1377
13 2061 1343
14 3134 928
15 500 1154
16 185 983
17 2142 1825
18 2672 780
19 2211 1320
20 430 1101
21 1277 205
22 3048 996
23 2732 107
24 1101 1435
25 3074 2642
26 2446 2951
27 123 2270
28 1818 74
29 1057 1400
30 1973 2438
